outputs/case_185.model.txt
internal_operation_system_executed = True
internal_control_system_established = True
internal_handling_system_executed = True
internal_control_system_executed = True
internal_handling_system_established = True
internal_operation_system_established = True
internal_operation_executed = True
internal_control_executed = True
internal_handling_established = True
violation_129_7 = False
penalty = False
internal_operation_ok = True
internal_control_established = True
internal_handling_executed = True
internal_operation_established = True
internal_handling_ok = True
internal_control_ok = True
internal_compliance = True